(set-info :smt-lib-version 2.6)
(set-logic QF_UFLRA)
(set-info :source |
MathSat group

|)
(set-info :category "random")
(set-info :status sat)
(declare-fun x0 () Real)
(declare-fun x1 () Real)
(declare-fun x2 () Real)
(declare-fun x3 () Real)
(declare-fun x4 () Real)
(declare-fun x5 () Real)
(declare-fun x6 () Real)
(declare-fun x7 () Real)
(declare-fun x8 () Real)
(declare-fun x9 () Real)
(declare-fun x10 () Real)
(declare-fun x11 () Real)
(declare-fun x12 () Real)
(declare-fun x13 () Real)
(declare-fun x14 () Real)
(declare-fun x15 () Real)
(declare-fun x16 () Real)
(declare-fun x17 () Real)
(declare-fun x18 () Real)
(declare-fun x19 () Real)
(declare-fun x20 () Real)
(declare-fun x21 () Real)
(declare-fun x22 () Real)
(declare-fun x23 () Real)
(declare-fun x24 () Real)
(declare-fun x25 () Real)
(declare-fun x26 () Real)
(declare-fun x27 () Real)
(declare-fun x28 () Real)
(declare-fun x29 () Real)
(declare-fun x30 () Real)
(declare-fun x31 () Real)
(declare-fun x32 () Real)
(declare-fun x33 () Real)
(declare-fun x34 () Real)
(declare-fun x35 () Real)
(declare-fun x36 () Real)
(declare-fun x37 () Real)
(declare-fun x38 () Real)
(declare-fun x39 () Real)
(declare-fun f0_1 (Real) Real)
(declare-fun f0_2 (Real Real) Real)
(declare-fun f0_3 (Real Real Real) Real)
(declare-fun f0_4 (Real Real Real Real) Real)
(declare-fun P0 () Bool)
(declare-fun P1 () Bool)
(declare-fun P2 () Bool)
(declare-fun P3 () Bool)
(declare-fun P4 () Bool)
(declare-fun P5 () Bool)
(declare-fun P6 () Bool)
(declare-fun P7 () Bool)
(declare-fun P8 () Bool)
(declare-fun P9 () Bool)
(declare-fun P10 () Bool)
(declare-fun P11 () Bool)
(declare-fun P12 () Bool)
(declare-fun P13 () Bool)
(declare-fun P14 () Bool)
(declare-fun P15 () Bool)
(declare-fun P16 () Bool)
(declare-fun P17 () Bool)
(declare-fun P18 () Bool)
(declare-fun P19 () Bool)
(declare-fun P20 () Bool)
(declare-fun P21 () Bool)
(declare-fun P22 () Bool)
(declare-fun P23 () Bool)
(declare-fun P24 () Bool)
(declare-fun P25 () Bool)
(declare-fun P26 () Bool)
(declare-fun P27 () Bool)
(declare-fun P28 () Bool)
(declare-fun P29 () Bool)
(declare-fun P30 () Bool)
(declare-fun P31 () Bool)
(declare-fun P32 () Bool)
(declare-fun P33 () Bool)
(declare-fun P34 () Bool)
(declare-fun P35 () Bool)
(declare-fun P36 () Bool)
(declare-fun P37 () Bool)
(declare-fun P38 () Bool)
(declare-fun P39 () Bool)
(assert (let ((?v_118 (* 3 x9)) (?v_74 (distinct (- (+ (* 4 x21) (* 42 x19)) (* 19 x29)) 54)) (?v_82 (<= (+ (- (* 17 x13) (* 43 x33)) (* 40 x7)) 46)) (?v_142 (<= (- (+ (* 16 x20) (* 6 x29)) (* 54 x26)) 56)) (?v_19 (distinct (+ (- (* 43 x17) (* 31 x27)) (* 57 x38)) 19))) (let ((?v_184 (< (- (- ?v_118 (* 12 x10)) (* 48 x33)) 41)) (?v_110 (distinct (- (+ (* 5 x28) (* 38 x27)) (* 29 x2)) 3)) (?v_116 (= (+ (- (* 54 x14) (* 15 x2)) (* 3 x15)) 37)) (?v_55 (= (f0_2 x18 x16) (f0_2 x3 x22))) (?v_18 (f0_1 x24))) (let ((?v_38 (= ?v_18 (f0_2 x9 x29))) (?v_33 (= x10 (f0_2 x33 x3))) (?v_72 (distinct (f0_2 x29 x12) x11)) (?v_26 (= x18 (f0_2 x19 x30))) (?v_25 (distinct (f0_1 x9) x10)) (?v_37 (= (f0_1 x26) (f0_2 x26 x27))) (?v_59 (distinct (f0_1 x7) (f0_1 x36))) (?v_146 (= (f0_2 x10 x6) (f0_1 x17))) (?v_134 (distinct (f0_1 x22) x6)) (?v_43 (distinct (f0_2 x27 x24) (f0_2 x15 x12))) (?v_5 (f0_1 x8))) (let ((?v_2 (distinct (f0_2 x33 x22) ?v_5)) (?v_51 (f0_1 x1))) (let ((?v_80 (distinct ?v_51 x11)) (?v_62 (distinct (f0_1 x28) x0)) (?v_49 (= x6 x6)) (?v_20 (= (f0_2 x24 x3) x8)) (?v_113 (distinct (f0_1 x33) x1)) (?v_131 (distinct (f0_2 x1 x9) x32)) (?v_105 (f0_1 x18))) (let ((?v_24 (= ?v_5 ?v_105)) (?v_8 (= (f0_1 x19) ?v_18)) (?v_122 (= x0 (f0_2 x7 x13))) (?v_173 (distinct (f0_2 x39 x6) ?v_105)) (?v_30 (= (f0_2 x0 x37) x24)) (?v_181 (= (f0_2 x37 x28) ?v_18)) (?v_58 (= (f0_2 x10 x34) (f0_1 x35))) (?v_143 (f0_1 x16))) (let ((?v_54 (= ?v_143 x7)) (?v_70 (distinct x39 (f0_1 x10))) (?v_57 (distinct x17 (f0_1 x38))) (?v_170 (distinct x2 x6)) (?v_31 (distinct x8 ?v_51)) (?v_186 (= ?v_143 x10)) (?v_17 (distinct (f0_2 x36 x32) (f0_2 x2 x5))) (?v_75 (= (f0_2 x25 x26) x2)) (?v_22 (distinct x38 (f0_2 x7 x27))) (?v_126 (distinct x19 (f0_2 x30 x38))) (?v_185 (= (f0_1 x39) x26)) (?v_61 (distinct (f0_1 x13) (f0_2 x33 x1))) (?v_60 (distinct (f0_1 x29) (f0_2 x37 x35))) (?v_141 (= (f0_2 x11 x7) x8)) (?v_125 (= (f0_2 x1 x18) (f0_1 x11))) (?v_0 (not P36)) (?v_16 (not P7)) (?v_34 (not ?v_2)) (?v_4 (not P28)) (?v_64 (not ?v_8)) (?v_76 (not P11))) (let ((?v_36 (not ?v_125)) (?v_66 (not ?v_25)) (?v_52 (not P24)) (?v_98 (not P9)) (?v_12 (not P5)) (?v_88 (not ?v_113)) (?v_10 (not P19)) (?v_11 (not ?v_31)) (?v_48 (not ?v_19)) (?v_177 (not P27)) (?v_65 (not P1)) (?v_127 (not ?v_26)) (?v_157 (not P17)) (?v_167 (not P16)) (?v_50 (not ?v_30)) (?v_182 (not P20)) (?v_21 (not ?v_131)) (?v_15 (not P32)) (?v_47 (not P21)) (?v_95 (not P30)) (?v_123 (not ?v_17)) (?v_84 (not ?v_146)) (?v_92 (not ?v_49)) (?v_85 (not P33)) (?v_27 (not ?v_22)) (?v_124 (not P39)) (?v_45 (not ?v_70)) (?v_160 (not ?v_122)) (?v_129 (not ?v_141)) (?v_41 (not P14)) (?v_87 (not ?v_38)) (?v_159 (not P0)) (?v_53 (not P12)) (?v_120 (not P38)) (?v_97 (not P3)) (?v_168 (not P34)) (?v_195 (not ?v_55)) (?v_79 (not ?v_57)) (?v_69 (not ?v_58)) (?v_151 (not ?v_59)) (?v_111 (not ?v_60)) (?v_145 (not ?v_61)) (?v_73 (not ?v_185)) (?v_132 (not P29)) (?v_176 (not ?v_20)) (?v_121 (or ?v_74 P19)) (?v_148 (not P23)) (?v_104 (not P8)) (?v_191 (not P25)) (?v_99 (not ?v_75)) (?v_187 (not P26)) (?v_86 (not P35)) (?v_108 (not ?v_80)) (?v_90 (not ?v_142)) (?v_89 (not ?v_82)) (?v_136 (not ?v_72)) (?v_100 (not ?v_62)) (?v_135 (not P18)) (?v_163 (not ?v_43)) (?v_102 (not P31)) (?v_138 (not P6)) (?v_128 (not ?v_170)) (?v_133 (not P10)) (?v_144 (not ?v_110)) (?v_140 (not ?v_24)) (?v_119 (not ?v_54)) (?v_201 (not ?v_116)) (?v_165 (not ?v_184)) (?v_150 (not P13)) (?v_198 (not ?v_126)) (?v_153 (not ?v_134)) (?v_149 (not P37)) (?v_175 (not P22)) (?v_203 (not P4)) (?v_158 (not ?v_37)) (?v_180 (not P2)) (?v_202 (not ?v_173)) (?v_192 (not ?v_33)) (?v_189 (not ?v_74)) (?v_197 (not ?v_181)) (?v_193 (not ?v_186)) (?v_9 (= (+ (* 9 x31) (* 35 x18) (* 8 x18)) 42))) (let ((?v_107 (not ?v_9)) (?v_1 (<= (+ (* 37 x14) (* 24 x28) (* 15 x14)) 9))) (let ((?v_42 (not ?v_1)) (?v_103 (= (+ (* 15 x12) (* 36 x6) (* 41 x39)) 32))) (let ((?v_183 (not ?v_103)) (?v_152 (<= (+ (- (* 40 x22) (* 37 x18)) (* 25 x3)) (- 1)))) (let ((?v_7 (not ?v_152)) (?v_67 (<= (+ (* (- 56) x20) (* 38 x11) (* 21 x19)) (- 53))) (?v_35 (< (- (+ (* (- 1) x14) (* 7 x39)) (* 50 x37)) (- 21)))) (let ((?v_174 (not ?v_35)) (?v_3 (distinct (- (- (* 20 x21) (* 19 x6)) (* 5 x3)) (- 1)))) (let ((?v_162 (not ?v_3)) (?v_6 (<= (- (- (* 7 x1) (* 48 x7)) (* 30 x36)) (- 28))) (?v_114 (<= (+ (* (- 48) x11) (* 8 x32) (* 4 x37)) (- 55)))) (let ((?v_169 (not ?v_114)) (?v_91 (< (- (- (* (- 43) x30) (* 2 x5)) (* 8 x4)) (- 9)))) (let ((?v_32 (not ?v_91)) (?v_39 (< (- (- (* 48 x10) x7) (* 15 x39)) (- 57))) (?v_29 (= (+ (* (- 42) x9) (* 19 x11) (* 33 x2)) 0)) (?v_81 (< (+ (* (- 35) x11) (* 49 x21) (* 18 x22)) (- 58))) (?v_14 (< (+ (* (- 52) x37) (* 25 x20) (* 40 x17)) 36)) (?v_40 (< (+ (* (- 33) x8) (* 24 x29) (* 47 x12)) 19))) (let ((?v_93 (not ?v_40)) (?v_13 (< (+ (- (* (- 49) x3) (* 8 x30)) (* 19 x2)) (- 41)))) (let ((?v_28 (not ?v_13)) (?v_156 (not ?v_14)) (?v_130 (< (- (+ (* (- 21) x20) (* 19 x23)) (* 53 x27)) 38))) (let ((?v_94 (not ?v_130)) (?v_23 (< (+ (- (* 18 x17) (* 55 x39)) (* 55 x24)) (- 25))) (?v_46 (< (+ (- 0 (* 15 x1)) (* 23 x11)) (- 38))) (?v_164 (= (- (- (* (- 17) x6) (* 16 x34)) (* 36 x30)) 21))) (let ((?v_179 (not ?v_164)) (?v_147 (distinct (+ (* (- 33) x1) (* 14 x21) (* 32 x35)) (- 53)))) (let ((?v_161 (not ?v_147)) (?v_71 (not ?v_23)) (?v_63 (< (+ ?v_118 (* 54 x31) (* 39 x7)) (- 31))) (?v_106 (< (- (- (* (- 6) x2) (* 51 x6)) (* 12 x36)) 5)) (?v_44 (<= (+ (- (* 10 x3) (* 25 x12)) (* 53 x25)) (- 29)))) (let ((?v_101 (not ?v_44)) (?v_109 (<= (- (- (* (- 19) x1) (* 33 x23)) (* 12 x23)) 40)) (?v_96 (not ?v_39)) (?v_78 (< (+ (- (* 34 x25) (* 20 x24)) (* 33 x34)) (- 22))) (?v_56 (not ?v_46)) (?v_139 (distinct (+ (* (- 9) x36) (* 53 x38) (* 27 x10)) (- 47)))) (let ((?v_68 (not ?v_139)) (?v_77 (= (- (- (* (- 15) x35) (* 24 x31)) (* 31 x5)) (- 6))) (?v_83 (<= (- (+ (* (- 36) x0) (* 8 x16)) (* 47 x2)) (- 55)))) (let ((?v_112 (not ?v_83)) (?v_117 (not ?v_67)) (?v_171 (not ?v_77)) (?v_178 (<= (+ (* 48 x38) (* 9 x6) (* 36 x10)) (- 15)))) (let ((?v_115 (not ?v_178)) (?v_154 (<= (- (+ (* (- 45) x24) (* 28 x5)) (* 24 x10)) (- 54))) (?v_190 (distinct (- (- (* (- 10) x6) (* 7 x18)) (* 29 x25)) (- 24)))) (let ((?v_155 (not ?v_190)) (?v_188 (not ?v_109)) (?v_200 (not ?v_29)) (?v_137 (not ?v_63)) (?v_172 (not ?v_106)) (?v_166 (not ?v_154)) (?v_196 (not ?v_81)) (?v_194 (< (+ (- (* (- 54) x20) (* 40 x32)) (* 35 x20)) 4)) (?v_199 (not ?v_6))) (and (and (and (and (and (and (and (and (and (and (and (and (and (and (and (and (and (and (and (and (and (and (and (and (and (and (and (and (and (and (and (and (and (and (and (and (and (and (and (and (and (and (and (and (and (and (and (and (and (and (and (and (and (and (and (and (and (and (and (and (and (and (and (and (and (and (and (and (and (and (and (and (and (and (and (and (and (and (and (and (and (and (and (and (and (and (and (and (and (and (and (and (and (and (and (and (and (and (and (and (and (and (and (and (and (and (and (and (and (and (and (and (and (and (and (and (and (and (and (and (and (and (and (and (and (and (and (and (and (and (and (and (and (and (and (and (and (and (and (and (and (and (and (and (and (and (and (and (and (and (and (and (and (and (and (and (and (and (and (and (and (and (and (and (and (and (and (and (and (and (and (and (and (and (and (and (and (and (and (and (and (and (and (and (and (and (and (and (and (and (and (and (and (and (and (and (and (and (and (and (and (and (and (and (and (and (and (and (and (and (and (and (and (and (and (and (and (and (and (and (and (and (and (and (and (and (and (and (and (and (and (and (and (and (and (and (and (and (and (and (and (and (and (and (and (and (and (and (and (and (and (and (and (and (and (and (and (and (and (and (and (and (and (and (and (and (and (and (and (and (and (and (and (and (and (and (and (and (and (and (and (and (and (and (and (and (and (and (and (and (and (and (and (and (and (and (and (and (and (and (and (and (and (and (and (and (and (and (and (and (and (and (and (and (and (and (and (and (and (and (and (and (and (and (and (and (and (and (and (and (and (and (and (and (and (and (and (and (and (and (and (and (and (and (and (and (and (and (and (and (and (and (and (and (and (and (and (and (and (and (and (and (and (and (and (and (and (and (and (and (and (and (and (and (and (and (and (and (and (and (and (and (and (and (and (and (and (and (and (and (and (and (and (and (and (and (and (and (and (and (and (and (and (and (and (and (and (and (and (and (and (and (and (and (and (and (and (and (and (and (and (and (and (and (and (and (and (and (and (and (and (and (and (and (and (and (and (and (and (and (and (and (and (and (and (and (and (and (and (and (and (and (and (and (and (and (and (and (and (and (and (and (and (and (and (and (and (and (and (and (and (and (and (and (and (and (and (and (and (or (or ?v_7 ?v_0) ?v_16) (or (or ?v_34 ?v_67) ?v_0)) (or (or ?v_107 P9) ?v_33)) (or (or ?v_4 ?v_1) ?v_174)) (or (or ?v_1 ?v_64) ?v_76)) (or (or ?v_36 ?v_2) ?v_22)) (or (or ?v_134 ?v_66) ?v_162)) (or (or ?v_6 ?v_52) ?v_169)) (or (or ?v_54 ?v_32) P29)) (or (or ?v_98 ?v_3) P11)) (or (or ?v_12 ?v_4) ?v_88)) (or (or ?v_10 P23) P5)) (or (or ?v_24 ?v_37) ?v_17)) (or (or ?v_11 ?v_6) ?v_7)) (or (or ?v_72 ?v_48) ?v_39)) (or (or ?v_177 P15) P14)) (or (or ?v_29 P21) ?v_8)) (or (or ?v_81 ?v_65) ?v_58)) (or (or ?v_9 ?v_127) ?v_157)) (or (or P32 P18) ?v_14)) (or (or ?v_167 ?v_93) ?v_50)) (or (or ?v_8 ?v_10) ?v_182)) (or (or ?v_28 ?v_11) ?v_43)) (or (or ?v_21 P14) ?v_15)) (or (or ?v_12 ?v_13) ?v_156)) (or (or ?v_47 ?v_15) ?v_95)) (or (or ?v_94 P32) P6)) (or (or ?v_16 ?v_123) ?v_20)) (or (or ?v_84 ?v_23) ?v_38)) (or (or ?v_19 ?v_46) P24)) (or (or ?v_20 ?v_13) ?v_21)) (or (or ?v_92 ?v_85) ?v_179)) (or (or ?v_42 ?v_27) ?v_75)) (or (or P17 ?v_161) ?v_124)) (or (or ?v_45 ?v_71) ?v_24)) (or (or ?v_25 ?v_26) ?v_14)) (or (or ?v_7 ?v_160) P20)) (or (or ?v_27 ?v_7) ?v_28)) (or (or ?v_29 ?v_63) ?v_24)) (or (or ?v_28 ?v_7) ?v_30)) (or (or ?v_31 ?v_32) P37)) (or (or ?v_0 ?v_103) ?v_106)) (or (or ?v_33 ?v_62) ?v_14)) (or (or ?v_34 ?v_20) ?v_101)) (or (or ?v_129 P1) ?v_109)) (or (or ?v_35 ?v_41) P31)) (or (or P4 ?v_36) P1)) (or (or P10 ?v_110) ?v_37)) (or (or ?v_87 ?v_31) ?v_159)) (or (or ?v_96 ?v_40) P16)) (or (or ?v_41 ?v_53) ?v_42)) (or (or P32 P36) ?v_43)) (or (or P35 ?v_44) ?v_45)) (or (or ?v_8 ?v_78) P3)) (or (or ?v_20 P12) ?v_4)) (or (or ?v_59 ?v_57) ?v_56)) (or (or ?v_55 P29) ?v_47)) (or (or P31 ?v_48) ?v_120)) (or (or ?v_10 ?v_28) ?v_40)) (or (or ?v_49 ?v_97) ?v_50)) (or (or P34 P18) ?v_80)) (or (or ?v_52 ?v_53) ?v_54)) (or (or ?v_168 ?v_44) ?v_195)) (or (or ?v_56 ?v_79) P4)) (or (or P30 P24) ?v_60)) (or (or ?v_69 ?v_68) ?v_77)) (or (or ?v_151 ?v_61) ?v_111)) (or (or P27 P33) ?v_61)) (or (or ?v_181 ?v_62) P14)) (or (or P1 ?v_63) ?v_14)) (or (or ?v_145 ?v_73) ?v_64)) (or (or ?v_65 ?v_1) ?v_132)) (or (or ?v_176 ?v_66) ?v_82)) (or (or ?v_112 ?v_67) ?v_37)) (or ?v_121 ?v_19)) (or (or ?v_68 ?v_3) ?v_55)) (or (or ?v_69 ?v_70) ?v_68)) (or (or ?v_148 ?v_71) ?v_8)) (or (or ?v_61 ?v_104) ?v_72)) (or (or ?v_54 ?v_191) P32)) (or (or P0 ?v_6) P1)) (or (or ?v_40 ?v_73) ?v_34)) (or (or ?v_55 ?v_36) ?v_74)) (or (or ?v_31 ?v_99) ?v_117)) (or (or P2 ?v_187) ?v_23)) (or (or ?v_76 ?v_171) ?v_40)) (or (or ?v_86 ?v_78) ?v_64)) (or (or ?v_79 P20) P33)) (or (or ?v_65 ?v_41) ?v_108)) (or (or P21 ?v_81) ?v_36)) (or (or ?v_90 ?v_33) ?v_89)) (or (or ?v_44 ?v_115) ?v_83)) (or (or ?v_84 ?v_85) ?v_72)) (or (or P39 ?v_27) ?v_86)) (or (or ?v_87 ?v_88) P14)) (or (or ?v_136 ?v_72) ?v_89)) (or (or ?v_90 ?v_86) ?v_76)) (or (or ?v_91 ?v_92) P2)) (or (or ?v_22 ?v_56) P26)) (or (or ?v_11 ?v_93) ?v_24)) (or (or ?v_0 ?v_94) ?v_11)) (or (or ?v_100 ?v_25) ?v_95)) (or (or ?v_49 ?v_76) P29)) (or (or ?v_154 ?v_135) ?v_96)) (or (or ?v_97 ?v_155) ?v_94)) (or (or ?v_22 ?v_98) ?v_163)) (or (or ?v_49 ?v_99) ?v_100)) (or (or P2 ?v_81) ?v_102)) (or (or ?v_7 P12) ?v_138)) (or (or ?v_93 ?v_85) ?v_37)) (or (or ?v_25 ?v_46) P33)) (or (or ?v_101 ?v_52) ?v_102)) (or (or ?v_183 P25) ?v_76)) (or (or ?v_53 ?v_22) P4)) (or (or ?v_104 ?v_71) ?v_96)) (or (or ?v_173 ?v_106) ?v_79)) (or (or P21 ?v_107) ?v_116)) (or (or ?v_128 ?v_108) ?v_133)) (or (or ?v_7 ?v_188) P17)) (or (or ?v_55 P13) ?v_85)) (or (or ?v_101 ?v_144) ?v_48)) (or (or ?v_103 P7) ?v_140)) (or (or P16 ?v_6) ?v_17)) (or (or P25 ?v_25) ?v_78)) (or (or ?v_111 ?v_112) P21)) (or (or ?v_73 P2) ?v_113)) (or (or ?v_114 ?v_50) ?v_115)) (or (or ?v_87 ?v_19) ?v_4)) (or (or P11 ?v_44) ?v_3)) (or (or P9 ?v_119) P22)) (or (or ?v_65 ?v_114) ?v_31)) (or (or ?v_70 ?v_58) P36)) (or (or ?v_81 P33) ?v_57)) (or (or ?v_201 ?v_117) ?v_86)) (or (or ?v_30 ?v_6) ?v_78)) (or (or ?v_165 ?v_119) ?v_63)) (or (or ?v_150 ?v_120) ?v_111)) (or (or ?v_109 ?v_55) ?v_45)) (or ?v_121 ?v_45)) (or (or P26 ?v_122) ?v_123)) (or (or ?v_106 P12) ?v_20)) (or (or ?v_124 ?v_74) ?v_39)) (or (or ?v_115 ?v_37) P20)) (or (or ?v_61 ?v_27) ?v_126)) (or (or P8 ?v_81) P25)) (or (or ?v_17 P20) ?v_34)) (or (or ?v_3 ?v_80) ?v_125)) (or (or ?v_11 P28) ?v_126)) (or (or ?v_127 ?v_70) ?v_200)) (or (or ?v_71 ?v_20) ?v_108)) (or (or P25 ?v_198) ?v_137)) (or (or ?v_1 P36) ?v_33)) (or (or ?v_41 ?v_3) ?v_128)) (or (or ?v_129 ?v_130) ?v_58)) (or (or ?v_111 ?v_86) ?v_131)) (or (or ?v_95 P2) ?v_50)) (or (or ?v_127 ?v_132) ?v_77)) (or (or ?v_6 ?v_49) ?v_104)) (or (or ?v_133 ?v_36) ?v_153)) (or (or ?v_92 ?v_88) ?v_115)) (or (or P28 ?v_62) P10)) (or (or ?v_7 ?v_119) ?v_135)) (or (or ?v_29 P3) ?v_17)) (or (or P34 ?v_119) ?v_84)) (or (or ?v_112 ?v_136) ?v_109)) (or (or ?v_91 ?v_106) P4)) (or (or P16 ?v_97) P19)) (or (or ?v_23 P34) ?v_64)) (or (or ?v_137 ?v_60) P3)) (or (or ?v_74 ?v_138) ?v_80)) (or (or ?v_139 ?v_20) ?v_140)) (or (or ?v_2 ?v_54) ?v_58)) (or (or P19 ?v_128) P22)) (or (or P32 ?v_106) ?v_117)) (or (or ?v_47 ?v_48) ?v_149)) (or (or ?v_141 ?v_124) ?v_175)) (or (or ?v_101 ?v_142) ?v_69)) (or (or ?v_186 ?v_144) ?v_67)) (or (or ?v_30 ?v_142) ?v_145)) (or (or ?v_16 P4) ?v_26)) (or (or ?v_6 P19) ?v_72)) (or (or ?v_100 P28) ?v_146)) (or (or P2 ?v_147) ?v_93)) (or (or P34 P7) P10)) (or (or ?v_142 ?v_122) ?v_112)) (or (or ?v_148 ?v_82) ?v_147)) (or (or P0 ?v_149) ?v_23)) (or (or ?v_97 ?v_93) ?v_6)) (or (or ?v_41 ?v_150) ?v_137)) (or (or ?v_151 ?v_54) P4)) (or (or ?v_100 ?v_0) ?v_172)) (or (or ?v_133 ?v_152) P29)) (or (or ?v_153 ?v_166) ?v_82)) (or (or ?v_9 ?v_66) ?v_88)) (or (or ?v_99 ?v_14) ?v_203)) (or (or P5 ?v_108) ?v_155)) (or (or ?v_156 ?v_80) ?v_158)) (or (or ?v_55 ?v_110) ?v_157)) (or (or ?v_68 ?v_75) ?v_14)) (or (or ?v_113 ?v_43) ?v_158)) (or (or ?v_67 P31) ?v_159)) (or (or ?v_160 ?v_20) (not P15))) (or (or ?v_111 ?v_52) ?v_81)) (or (or ?v_151 ?v_161) ?v_9)) (or (or ?v_63 ?v_81) ?v_128)) (or (or ?v_63 P24) ?v_140)) (or (or ?v_134 ?v_152) P27)) (or (or ?v_161 P33) ?v_111)) (or (or ?v_162 ?v_37) ?v_35)) (or (or ?v_119 ?v_163) ?v_12)) (or (or ?v_164 ?v_42) ?v_0)) (or (or P10 ?v_165) ?v_166)) (or (or ?v_31 ?v_144) ?v_166)) (or (or ?v_180 ?v_124) ?v_78)) (or (or ?v_167 P29) ?v_9)) (or (or ?v_168 ?v_169) ?v_110)) (or (or ?v_170 ?v_67) ?v_119)) (or (or ?v_131 ?v_139) ?v_75)) (or (or ?v_80 ?v_13) ?v_171)) (or (or ?v_73 P6) ?v_132)) (or (or ?v_7 ?v_45) ?v_135)) (or (or ?v_75 ?v_151) ?v_139)) (or (or ?v_73 P30) P34)) (or (or ?v_172 P17) ?v_25)) (or (or ?v_159 ?v_99) ?v_81)) (or (or ?v_202 P19) ?v_113)) (or (or ?v_174 ?v_112) ?v_1)) (or (or P16 ?v_99) ?v_25)) (or (or ?v_175 ?v_176) ?v_177)) (or (or ?v_192 P1) ?v_174)) (or (or ?v_19 ?v_178) ?v_47)) (or (or P16 P10) ?v_36)) (or (or ?v_24 ?v_45) ?v_75)) (or (or ?v_144 P6) ?v_49)) (or (or ?v_122 ?v_126) ?v_66)) (or (or ?v_110 P37) P25)) (or (or ?v_179 ?v_3) ?v_53)) (or (or ?v_139 P34) P11)) (or (or ?v_0 ?v_151) ?v_101)) (or (or P11 ?v_158) ?v_130)) (or (or ?v_63 ?v_9) ?v_189)) (or (or ?v_176 ?v_114) ?v_15)) (or (or ?v_99 ?v_41) ?v_20)) (or (or ?v_153 ?v_66) ?v_42)) (or (or ?v_107 P27) ?v_45)) (or (or ?v_27 ?v_4) ?v_108)) (or (or ?v_180 ?v_17) P0)) (or (or ?v_197 ?v_102) ?v_37)) (or (or ?v_22 ?v_182) P19)) (or (or ?v_166 ?v_109) ?v_183)) (or (or ?v_174 ?v_21) ?v_11)) (or (or P18 ?v_58) ?v_0)) (or (or ?v_182 ?v_58) ?v_16)) (or (or ?v_175 ?v_175) ?v_155)) (or (or ?v_16 ?v_93) ?v_184)) (or (or ?v_7 ?v_85) P0)) (or (or ?v_129 P5) ?v_163)) (or (or P4 ?v_196) ?v_184)) (or (or ?v_113 ?v_185) P28)) (or (or ?v_110 ?v_176) ?v_19)) (or (or ?v_167 ?v_193) P32)) (or (or ?v_187 ?v_44) P30)) (or (or P17 ?v_166) ?v_183)) (or (or ?v_62 ?v_188) ?v_133)) (or (or ?v_45 ?v_63) ?v_12)) (or (or ?v_161 P11) ?v_155)) (or (or ?v_22 ?v_49) ?v_110)) (or (or ?v_93 ?v_140) ?v_73)) (or (or ?v_38 ?v_13) P31)) (or (or ?v_12 ?v_113) ?v_189)) (or (or ?v_100 ?v_112) P26)) (or (or ?v_98 ?v_165) ?v_8)) (or (or P36 ?v_61) ?v_116)) (or (or ?v_39 ?v_157) ?v_33)) (or (or ?v_150 ?v_72) ?v_37)) (or (or ?v_62 ?v_74) ?v_190)) (or (or ?v_191 ?v_13) ?v_162)) (or (or ?v_167 ?v_72) ?v_117)) (or (or ?v_163 ?v_168) ?v_72)) (or (or ?v_147 ?v_115) ?v_181)) (or (or ?v_185 ?v_101) ?v_33)) (or (or ?v_31 ?v_88) P15)) (or (or ?v_22 ?v_90) ?v_122)) (or (or ?v_112 ?v_93) ?v_58)) (or (or ?v_32 ?v_101) P12)) (or (or ?v_33 ?v_124) ?v_61)) (or (or ?v_65 ?v_126) ?v_119)) (or (or ?v_64 ?v_106) ?v_154)) (or (or ?v_137 ?v_25) ?v_40)) (or (or P37 ?v_16) ?v_33)) (or (or ?v_175 ?v_30) ?v_40)) (or (or ?v_39 ?v_133) ?v_160)) (or (or ?v_136 ?v_122) ?v_3)) (or (or ?v_109 P4) ?v_30)) (or (or P15 ?v_72) ?v_183)) (or (or ?v_58 ?v_130) P17)) (or (or P38 ?v_58) ?v_188)) (or (or ?v_113 ?v_123) P23)) (or (or ?v_177 ?v_176) ?v_82)) (or (or ?v_91 ?v_55) ?v_16)) (or (or P8 ?v_82) P7)) (or (or ?v_125 ?v_127) ?v_172)) (or (or P17 ?v_64) ?v_81)) (or (or ?v_112 ?v_141) ?v_128)) (or (or P2 ?v_40) ?v_192)) (or (or ?v_49 ?v_120) ?v_47)) (or (or P18 ?v_128) ?v_97)) (or (or P5 ?v_180) ?v_41)) (or (or ?v_58 ?v_56) P21)) (or (or P25 ?v_32) ?v_72)) (or (or ?v_107 ?v_7) ?v_194)) (or (or ?v_64 ?v_180) ?v_97)) (or (or ?v_189 ?v_193) ?v_98)) (or (or ?v_80 ?v_27) ?v_194)) (or (or ?v_67 P13) ?v_124)) (or (or ?v_140 ?v_139) ?v_199)) (or (or ?v_50 ?v_194) ?v_152)) (or (or ?v_92 ?v_21) ?v_88)) (or (or ?v_63 ?v_189) ?v_113)) (or (or ?v_117 ?v_71) P34)) (or (or ?v_78 ?v_16) ?v_177)) (or (or ?v_31 ?v_134) P32)) (or (or ?v_179 ?v_125) ?v_107)) (or (or ?v_178 ?v_112) ?v_182)) (or (or ?v_126 ?v_86) ?v_151)) (or (or P21 ?v_195) ?v_160)) (or (or ?v_70 ?v_11) ?v_131)) (or (or ?v_196 ?v_24) ?v_73)) (or (or P35 ?v_36) ?v_68)) (or (or ?v_31 ?v_92) ?v_173)) (or (or ?v_8 ?v_56) ?v_86)) (or (or ?v_50 ?v_34) ?v_176)) (or (or P35 ?v_17) ?v_21)) (or (or ?v_50 ?v_123) ?v_62)) (or (or ?v_188 ?v_144) ?v_197)) (or (or P16 ?v_181) P5)) (or (or P38 ?v_29) ?v_97)) (or (or ?v_138 ?v_73) ?v_32)) (or (or ?v_108 ?v_33) ?v_198)) (or (or ?v_148 ?v_1) ?v_132)) (or (or ?v_137 P27) ?v_2)) (or (or ?v_195 ?v_142) P2)) (or (or ?v_82 ?v_156) ?v_160)) (or (or ?v_100 ?v_122) (not ?v_194))) (or (or ?v_50 ?v_41) ?v_93)) (or (or P1 ?v_1) (not ?v_78))) (or (or ?v_185 ?v_133) P17)) (or (or ?v_195 ?v_106) P13)) (or (or ?v_90 ?v_37) ?v_176)) (or (or ?v_1 ?v_62) ?v_163)) (or (or ?v_199 ?v_183) ?v_38)) (or (or ?v_144 ?v_112) ?v_124)) (or (or ?v_174 ?v_160) ?v_72)) (or (or ?v_64 P14) ?v_151)) (or (or ?v_154 ?v_21) ?v_142)) (or (or ?v_123 P17) ?v_115)) (or (or ?v_88 ?v_171) ?v_76)) (or (or ?v_63 ?v_83) ?v_16)) (or (or ?v_159 ?v_117) ?v_176)) (or (or ?v_52 ?v_54) ?v_194)) (or (or P27 ?v_65) P11)) (or (or ?v_193 ?v_166) ?v_153)) (or (or ?v_158 P15) ?v_42)) (or (or ?v_14 ?v_67) ?v_193)) (or (or ?v_0 ?v_90) ?v_19)) (or (or ?v_175 P27) ?v_94)) (or (or P29 ?v_85) ?v_139)) (or (or P9 P19) ?v_21)) (or (or ?v_38 ?v_45) P20)) (or (or ?v_101 ?v_162) P12)) (or (or ?v_57 P5) ?v_128)) (or (or ?v_170 ?v_7) ?v_185)) (or (or ?v_4 ?v_29) ?v_30)) (or (or ?v_162 ?v_77) P13)) (or (or ?v_28 ?v_104) ?v_48)) (or (or ?v_42 ?v_12) P19)) (or (or P2 ?v_97) ?v_182)) (or (or ?v_119 ?v_23) ?v_198)) (or (or ?v_144 ?v_24) ?v_106)) (or (or P33 P30) ?v_115)) (or (or ?v_43 ?v_49) ?v_156)) (or (or P24 ?v_101) ?v_66)) (or (or ?v_11 ?v_166) ?v_140)) (or (or ?v_14 ?v_77) ?v_40)) (or (or ?v_55 ?v_190) ?v_83)) (or (or ?v_48 ?v_147) ?v_200)) (or (or ?v_3 P13) ?v_22)) (or (or ?v_106 ?v_126) ?v_13)) (or (or ?v_147 ?v_45) P18)) (or (or ?v_60 ?v_89) ?v_109)) (or (or P20 ?v_54) ?v_149)) (or (or ?v_96 ?v_117) P38)) (or (or ?v_181 ?v_146) ?v_64)) (or (or ?v_82 ?v_196) ?v_160)) (or (or ?v_102 ?v_62) P22)) (or (or P10 ?v_67) ?v_126)) (or (or ?v_139 ?v_30) ?v_83)) (or (or ?v_96 ?v_108) ?v_180)) (or (or ?v_101 ?v_94) ?v_193)) (or (or ?v_73 P21) P20)) (or (or ?v_98 ?v_185) ?v_2)) (or (or ?v_0 P28) P34)) (or (or P39 ?v_78) P38)) (or (or ?v_154 ?v_151) ?v_163)) (or (or ?v_201 ?v_12) P25)) (or (or ?v_195 ?v_16) ?v_60)) (or (or P9 ?v_35) ?v_151)) (or (or ?v_40 ?v_4) P39)) (or (or ?v_181 ?v_120) ?v_194)) (or (or ?v_80 ?v_9) ?v_185)) (or (or ?v_38 ?v_127) ?v_122)) (or (or ?v_131 ?v_150) ?v_14)) (or (or ?v_71 ?v_170) ?v_157)) (or (or ?v_71 ?v_126) P8)) (or (or ?v_115 ?v_93) ?v_97)) (or (or ?v_120 ?v_77) ?v_167)) (or (or P32 ?v_193) ?v_109)) (or (or ?v_39 ?v_3) ?v_107)) (or (or ?v_95 ?v_136) ?v_14)) (or (or ?v_148 P2) ?v_198)) (or (or ?v_63 P16) ?v_28)) (or (or ?v_81 ?v_115) P17)) (or (or ?v_82 ?v_166) ?v_49)) (or (or ?v_60 ?v_92) P26)) (or (or ?v_90 P12) ?v_89)) (or (or ?v_73 ?v_183) ?v_124)) (or (or ?v_200 ?v_49) ?v_124)) (or (or ?v_163 ?v_185) ?v_195)) (or (or ?v_191 P13) ?v_177)) (or (or ?v_87 P14) ?v_202)) (or (or ?v_56 ?v_199) ?v_85)) (or (or ?v_104 ?v_4) ?v_161)) (or (or ?v_175 ?v_15) P29)) (or (or ?v_70 ?v_89) ?v_116)) (or (or ?v_16 ?v_140) P1)) (or (or ?v_180 ?v_203) ?v_78)) (or (or ?v_2 ?v_108) P32)) (or (or ?v_61 ?v_17) ?v_112)) (or (or ?v_78 ?v_75) ?v_25)) (or (or ?v_13 ?v_19) ?v_66)) (or (or ?v_38 ?v_57) ?v_202)) (or (or ?v_20 ?v_107) ?v_163)) (or (or ?v_48 P15) ?v_10)) (or (or ?v_193 ?v_128) P22)) (or (or ?v_112 ?v_147) P23)) (or (or ?v_70 ?v_17) ?v_128)) (or (or ?v_142 P16) ?v_75)) (or (or ?v_187 ?v_48) ?v_103)) (or (or ?v_163 P15) ?v_123)) (or (or ?v_92 ?v_144) ?v_88)) (or (or ?v_19 ?v_193) P27)) (or (or ?v_21 ?v_35) P10)) (or (or P30 ?v_199) P14)) (or (or ?v_149 ?v_202) ?v_43)) (or (or ?v_59 ?v_171) ?v_10)) (or (or ?v_3 ?v_188) P14)) (or (or ?v_84 ?v_87) ?v_77)) (or (or ?v_113 ?v_167) ?v_29)) (or (or P32 ?v_16) ?v_139)) (or (or ?v_40 ?v_162) ?v_122)) (or (or ?v_8 ?v_137) P2)) (or (or ?v_139 ?v_97) ?v_49)) (or (or ?v_75 ?v_125) ?v_90)) (or (or ?v_74 ?v_30) P3)) (or (or P38 ?v_203) ?v_23)) (or (or ?v_127 ?v_167) P18)) (or (or ?v_119 P12) ?v_99)) (or (or ?v_40 ?v_150) ?v_28)) (or (or ?v_82 ?v_15) ?v_114)) (or (or ?v_43 ?v_20) ?v_125)) (or (or ?v_33 ?v_168) ?v_32)) (or (or ?v_62 ?v_148) ?v_0)) (or (or P3 ?v_193) ?v_91)) (or (or ?v_157 ?v_132) ?v_155)) (or (or ?v_155 ?v_180) ?v_97)) (or (or ?v_117 P24) ?v_74)) (or (or ?v_83 ?v_31) ?v_41)) (or (or ?v_152 P27) ?v_146)) (or (or P31 ?v_66) ?v_78)) (or (or P38 ?v_201) ?v_132)))))))))))))))))))))))))))))
(check-sat)
(exit)
